10J3M/DAT/10J3MNLX-2.dat
10 3
27.6302 5.2564
25.8437 5.0837
32.9098 5.7367
31.5151 5.6138
21.8408 4.6734
26.2959 5.128
22.4929 4.7427
27.8283 5.2753
29.9072 5.4687
26.024 5.1014
17.36