10J3M/SOL/10J3MNLX-2.sol
solution status: optimal solution found
objective value:                     90.7624775523887
x#1#2                                               1 	(obj:0)
x#2#1                                               1 	(obj:0)
x#3#1                                0.60201607653207 	(obj:0)
x#3#2                                0.39798392346793 	(obj:0)
x#4#2                              0.0221415455987066 	(obj:0)
x#4#3                               0.977858454401293 	(obj:0)
x#5#3                               0.999978602302393 	(obj:0)
x#6#1                               0.725685330296114 	(obj:0)
x#6#2                               0.274314669703886 	(obj:0)
x#7#2                               0.635545531304527 	(obj:0)
x#7#3                               0.364454468695473 	(obj:0)
x#8#2                                               1 	(obj:0)
x#9#3                                               1 	(obj:0)
x#10#1                                              1 	(obj:0)
z                                    90.7624775523887 	(obj:1)
